NAME: sim-grid-B-10
TYPE: TSP
COMMENT: Semi-regular Grid
DIMENSION: 10
EDGE_WEIGHT_TYPE: EUC_2D
NODE_COORD_SECTION
1 650 50
2 1250 150
3 550 350
4 1300 350
5 100 450
6 400 450
7 850 450
8 1150 450
9 1150 650
10 1450 750
EOF
